(declare-const c_0 Real)
(declare-const c_1 Real)
(declare-const c_2 Real)
(declare-const c_3 Real)
(declare-const c_4 Real)
(declare-const c_5 Real)
(declare-const c_6 Real)
(declare-const c_7 Real)
(declare-const c_8 Real)
(declare-const c_9 Real)
(declare-const c_10 Real)
(declare-const c_11 Real)
(declare-const c_12 Real)
(declare-const c_13 Real)
(declare-const c_14 Real)
(declare-const c_15 Real)
(declare-const c_16 Real)
(declare-const c_17 Real)
(declare-const c_18 Real)
(declare-const c_19 Real)
(declare-const c_20 Real)
(declare-const c_21 Real)
(declare-const c_22 Real)
(declare-const c_23 Real)
(declare-const c_24 Real)
(declare-const c_25 Real)
(declare-const c_26 Real)
(declare-const c_27 Real)
(declare-const c_28 Real)
(declare-const c_29 Real)
(declare-const s_0 Real)
(declare-const s_1 Real)
(declare-const s_2 Real)
(declare-const s_3 Real)
(declare-const s_4 Real)
(declare-const s_5 Real)
(declare-const s_6 Real)
(declare-const s_7 Real)
(declare-const s_8 Real)
(declare-const s_9 Real)
(declare-const s_10 Real)
(declare-const s_11 Real)
(declare-const s_12 Real)
(declare-const s_13 Real)
(declare-const s_14 Real)
(declare-const s_15 Real)
(declare-const s_16 Real)
(declare-const s_17 Real)
(declare-const s_18 Real)
(declare-const s_19 Real)
(declare-const s_20 Real)
(declare-const s_21 Real)
(declare-const s_22 Real)
(declare-const s_23 Real)
(declare-const s_24 Real)
(declare-const s_25 Real)
(declare-const s_26 Real)
(declare-const s_27 Real)
(declare-const s_28 Real)
(declare-const s_29 Real)
(assert (forall ((a Real) (b Real) (i Real) ) (=> (and (>= (+ (* 1024 1) (* 1 a ) ) 0) (>= (+ (* 1023 1) (* (- 1) a ) ) 0) (>= (+ (* 1024 1) (* 1 b ) ) 0) (>= (+ (* 1023 1) (* (- 1) b ) ) 0) (>= (+ (* 1024 1) (* 1 i ) ) 0) (>= (+ (* 1023 1) (* (- 1) i ) ) 0) ) (>= (+ (* 1 a b s_2 ) (* 1 a i s_3 ) (* 1 a s_1 ) (* 1 a a s_4 ) (* 1 b i s_6 ) (* 1 b s_5 ) (* 1 b b s_7 ) (* 1 i s_8 ) (* 1 i i s_9 ) (* 1 s_0 ) ) 0) )))
(assert (forall ((a Real) (b Real) (i Real) ) (=> (and (>= (+ (* 1024 1) (* 1 a ) ) 0) (>= (+ (* 1023 1) (* (- 1) a ) ) 0) (>= (+ (* 1024 1) (* 1 b ) ) 0) (>= (+ (* 1023 1) (* (- 1) b ) ) 0) (>= (+ (* 1024 1) (* 1 i ) ) 0) (>= (+ (* 1023 1) (* (- 1) i ) ) 0) ) (>= (+ (* 1 a b c_2 ) (* 1 a c_1 ) (* 1 a c_3 i ) (* 1 a a c_4 ) (* 1 b c_5 ) (* 1 b c_6 i ) (* 1 b b c_7 ) (* 1 c_0 ) (* 1 c_8 i ) (* 1 c_9 i i ) ) 0) )))
(assert (forall ((a Real) (b Real) (i Real) ) (=> (and (>= (+ (* 1023 1) (* (- 1) i ) ) 0) (>= (+ (* 1024 1) (* 1 i ) ) 0) (>= (+ (* 1023 1) (* (- 1) b ) ) 0) (>= (+ (* 1024 1) (* 1 b ) ) 0) (>= (+ (* 1023 1) (* (- 1) a ) ) 0) (>= (+ (* 1024 1) (* 1 a ) ) 0) (>= (+ (* 1 a b s_2 ) (* 1 a i s_3 ) (* 1 a s_1 ) (* 1 a a s_4 ) (* 1 b i s_6 ) (* 1 b s_5 ) (* 1 b b s_7 ) (* 1 i s_8 ) (* 1 i i s_9 ) (* 1 s_0 ) ) 0) ) (>= (+ (* 1 s_10 ) (* 5 s_11 ) (* 15 s_12 ) (* 25 s_14 ) (* 3 s_15 ) (* 9 s_17 ) ) 0) )))
(assert (forall ((a Real) (b Real) (i Real) ) (=> (and (>= (+ (* 1023 1) (* (- 1) i ) ) 0) (>= (+ (* 1024 1) (* 1 i ) ) 0) (>= (+ (* 1023 1) (* (- 1) b ) ) 0) (>= (+ (* 1024 1) (* 1 b ) ) 0) (>= (+ (* 1023 1) (* (- 1) a ) ) 0) (>= (+ (* 1024 1) (* 1 a ) ) 0) (>= (+ (* 1 a b s_2 ) (* 1 a i s_3 ) (* 1 a s_1 ) (* 1 a a s_4 ) (* 1 b i s_6 ) (* 1 b s_5 ) (* 1 b b s_7 ) (* 1 i s_8 ) (* 1 i i s_9 ) (* 1 s_0 ) ) 0) ) (>= (+ (* 1 c_10 ) (* 5 c_11 ) (* 15 c_12 ) (* 25 c_14 ) (* 3 c_15 ) (* 9 c_17 ) ) 0) )))
(assert (forall ((a Real) (b Real) (i Real) ) (=> (and (>= (+ (* 1023 1) (* (- 1) i ) ) 0) (>= (+ (* 1024 1) (* 1 i ) ) 0) (>= (+ (* 1023 1) (* (- 1) b ) ) 0) (>= (+ (* 1024 1) (* 1 b ) ) 0) (>= (+ (* 1023 1) (* (- 1) a ) ) 0) (>= (+ (* 1024 1) (* 1 a ) ) 0) (>= (+ (* 1 a b s_2 ) (* 1 a i s_3 ) (* 1 a s_1 ) (* 1 a a s_4 ) (* 1 b i s_6 ) (* 1 b s_5 ) (* 1 b b s_7 ) (* 1 i s_8 ) (* 1 i i s_9 ) (* 1 s_0 ) ) 0) ) (>= (+ (* (- 1) 1) (* 1 a b c_2 ) (* 1 a c_1 ) (* 1 a c_3 i ) (* 1 a a c_4 ) (* 1 b c_5 ) (* 1 b c_6 i ) (* 1 b b c_7 ) (* 1 c_0 ) (* (- 1) c_10 ) (* (- 5) c_11 ) (* (- 15) c_12 ) (* (- 25) c_14 ) (* (- 3) c_15 ) (* (- 9) c_17 ) (* 1 c_8 i ) (* 1 c_9 i i ) ) 0) )))
(assert (forall ((a Real) (b Real) (i Real) ) (=> (and (>= (+ (* 9 1) (* (- 1) i ) ) 0) (>= (+ (* 5 1) (* (- 1) a ) ) 0) (>= (+ (* (- 5) 1) (* 1 a ) ) 0) (>= (+ (* 3 1) (* (- 1) b ) ) 0) (>= (+ (* (- 3) 1) (* 1 b ) ) 0) (>= (* (- 1) i ) 0) (>= (* 1 i ) 0) (>= (+ (* 1 a b s_12 ) (* 1 a i s_13 ) (* 1 a s_11 ) (* 1 a a s_14 ) (* 1 b i s_16 ) (* 1 b s_15 ) (* 1 b b s_17 ) (* 1 i s_18 ) (* 1 i i s_19 ) (* 1 s_10 ) ) 0) ) (>= (+ (* 1 a b s_12 ) (* 1 a i s_13 ) (* 1 a s_11 ) (* 1 a a s_14 ) (* 1 b i s_16 ) (* 1 b s_15 ) (* 1 b b s_17 ) (* 1 i s_18 ) (* 1 i i s_19 ) (* 1 s_10 ) ) 0) )))
(assert (forall ((a Real) (b Real) (i Real) ) (=> (and (>= (+ (* 9 1) (* (- 1) i ) ) 0) (>= (+ (* 5 1) (* (- 1) a ) ) 0) (>= (+ (* (- 5) 1) (* 1 a ) ) 0) (>= (+ (* 3 1) (* (- 1) b ) ) 0) (>= (+ (* (- 3) 1) (* 1 b ) ) 0) (>= (* (- 1) i ) 0) (>= (* 1 i ) 0) (>= (+ (* 1 a b s_12 ) (* 1 a i s_13 ) (* 1 a s_11 ) (* 1 a a s_14 ) (* 1 b i s_16 ) (* 1 b s_15 ) (* 1 b b s_17 ) (* 1 i s_18 ) (* 1 i i s_19 ) (* 1 s_10 ) ) 0) ) (>= (+ (* 1 a b c_12 ) (* 1 a c_11 ) (* 1 a c_13 i ) (* 1 a a c_14 ) (* 1 b c_15 ) (* 1 b c_16 i ) (* 1 b b c_17 ) (* 1 c_10 ) (* 1 c_18 i ) (* 1 c_19 i i ) ) 0) )))
(assert (forall ((a Real) (b Real) (i Real) ) (=> (and (>= (+ (* 9 1) (* (- 1) i ) ) 0) (>= (+ (* 5 1) (* (- 1) a ) ) 0) (>= (+ (* (- 5) 1) (* 1 a ) ) 0) (>= (+ (* 3 1) (* (- 1) b ) ) 0) (>= (+ (* (- 3) 1) (* 1 b ) ) 0) (>= (* (- 1) i ) 0) (>= (* 1 i ) 0) (>= (+ (* 1 a b s_12 ) (* 1 a i s_13 ) (* 1 a s_11 ) (* 1 a a s_14 ) (* 1 b i s_16 ) (* 1 b s_15 ) (* 1 b b s_17 ) (* 1 i s_18 ) (* 1 i i s_19 ) (* 1 s_10 ) ) 0) ) (>= (* (- 1) 1) 0) )))
(assert (forall ((a Real) (b Real) (i Real) ) (=> (and (>= (+ (* (- 10) 1) (* 1 i ) ) 0) (>= (+ (* 5 1) (* (- 1) a ) ) 0) (>= (+ (* (- 5) 1) (* 1 a ) ) 0) (>= (+ (* 3 1) (* (- 1) b ) ) 0) (>= (+ (* (- 3) 1) (* 1 b ) ) 0) (>= (* (- 1) i ) 0) (>= (* 1 i ) 0) (>= (+ (* 1 a b s_12 ) (* 1 a i s_13 ) (* 1 a s_11 ) (* 1 a a s_14 ) (* 1 b i s_16 ) (* 1 b s_15 ) (* 1 b b s_17 ) (* 1 i s_18 ) (* 1 i i s_19 ) (* 1 s_10 ) ) 0) ) (>= (+ (* 1 a b s_22 ) (* 1 a i s_23 ) (* 1 a s_21 ) (* 1 a a s_24 ) (* 1 b i s_26 ) (* 1 b s_25 ) (* 1 b b s_27 ) (* 1 i s_28 ) (* 1 i i s_29 ) (* 1 s_20 ) ) 0) )))
(assert (forall ((a Real) (b Real) (i Real) ) (=> (and (>= (+ (* (- 10) 1) (* 1 i ) ) 0) (>= (+ (* 5 1) (* (- 1) a ) ) 0) (>= (+ (* (- 5) 1) (* 1 a ) ) 0) (>= (+ (* 3 1) (* (- 1) b ) ) 0) (>= (+ (* (- 3) 1) (* 1 b ) ) 0) (>= (* (- 1) i ) 0) (>= (* 1 i ) 0) (>= (+ (* 1 a b s_12 ) (* 1 a i s_13 ) (* 1 a s_11 ) (* 1 a a s_14 ) (* 1 b i s_16 ) (* 1 b s_15 ) (* 1 b b s_17 ) (* 1 i s_18 ) (* 1 i i s_19 ) (* 1 s_10 ) ) 0) ) (>= (+ (* 1 a b c_22 ) (* 1 a c_21 ) (* 1 a c_23 i ) (* 1 a a c_24 ) (* 1 b c_25 ) (* 1 b c_26 i ) (* 1 b b c_27 ) (* 1 c_20 ) (* 1 c_28 i ) (* 1 c_29 i i ) ) 0) )))

(check-sat)
(get-model)
